50
9586

460 922
509 61
223 279
501 288
177 616
131 763
866 195
203 501
116 544
743 906
935 575
905 301
838 952
883 389
861 186
348 67
480 879
592 254
852 5
818 444
224 749
542 442
442 680
424 438
359 967
538 392
457 789
15 47
14 470
602 356
462 451
607 535
752 272
424 419
143 592
598 429
888 246
643 75
698 602
766 905
16 282
265 950
886 616
915 711
427 356
499 730
951 54
626 19
605 135
135 416
